30	100	100	100
29	100	100
28	100	100
41	100	100
30	100	100
24	100	100
30	100	100
32	100	100
31	100	100
37	100	100
46	100	100
16	100	100
23	100	100
26	100	100
10	100	100
37	100	100
19	100	100
25	100	100
38	100	100
3	100	100
39	100	100
36	100	100
6	100	100
19	100	100
41	100	100
38	100	100
36	100	100
44	100	100
8	100	100
3	100	100
38	100	100
